m = 2;
n = 7;
l = [15, 13, ];
s = [3, 2, 6, 8, 5, 4, 4, ];
x = [1, 2, 2, 4, 5, 5, 6, 3, ];
y = [3, 1, 5, 0, 2, 5, 4, 3, ];
% lower_bound = 22;
length = [4, 4, ];
%[]
%[]
%[]
%[]
%[]
%[6]
%[]
%[]
%[]
%[]
%[]
%[]
%[5]
%[]
%[]
%[]
%[]
%[]
%[]
%[]
%[]
%[]
%[]
%[]
%[]
%[]
%[]
%[]
%[]
%[]
%[]
%[]
%[2]
%[]
%[]
%[]
%[]
%[]
%[]
%[]
%[]
%[]
%[]
%[]
%[]
%[]
%[]
%[]
%[]
%[0]
%[]
%[]
%[]
%[]
%[]
%[]
%[]
%[]
%[]
%[]
%[]
%[]
%[]
%[]
%[]
%[]
%[]
%[]
%[1]
%[]
%[]
%[]
%[]
%[]
%[]
%[]
%[]
%[]
%[]
%[]
%[]
%[3]
%[]
%[]
%[]
%[]
%[]
%[]
%[]
%[]
%[]
%[]
%[]
%[4]
%[]
%[]
%[]
%[]
%[]
%[]
%[0, 0, 0, 0, 0, 4, 0, 0, 0, 0, 0, 0, 4, 0, 0, 0, 0, 0, 0, 0, 0, 0, 0, 0, 0, 0, 0, 0, 0, 0, 0, 0, 6, 0, 0, 0, 0, 0, 0, 0, 0, 0, 0, 0, 0, 0, 0, 0, 0, 3, 0, 0, 0, 0, 0, 0, 0, 0, 0, 0, 0, 0, 0, 0, 0, 0, 0, 0, 2, 0, 0, 0, 0, 0, 0, 0, 0, 0, 0, 0, 0, 8, 0, 0, 0, 0, 0, 0, 0, 0, 0, 0, 0, 5, 0, 0, 0, 0, 0, 0]
